NAME : sim161.128982.tour
COMMENT : Length = 128982
COMMENT : Found by LKH [Keld Helsgaun] Sat Sep 15 08:37:04 2018
TYPE : TOUR
DIMENSION : 161
TOUR_SECTION
1
44
21
138
104
91
22
129
149
20
49
37
137
32
140
160
152
11
16
64
84
150
50
123
121
6
106
61
68
139
42
40
89
43
28
122
115
53
151
66
124
5
96
54
159
97
143
7
98
69
74
161
86
57
126
110
94
103
108
109
13
157
127
75
135
80
60
133
100
62
102
45
25
158
51
156
111
117
48
29
58
78
130
77
128
71
30
142
10
38
31
146
4
36
105
23
41
17
3
24
132
72
47
131
67
14
18
147
112
90
12
125
55
59
82
107
33
113
27
8
120
35
9
79
52
144
85
155
92
136
65
116
153
118
34
2
99
81
56
141
95
88
39
70
19
93
101
114
63
76
26
134
15
73
154
119
148
83
145
46
87
-1
EOF
